12	20	13	1	2	7	12	2	11	16	17	18	3	19	1	10	20	12	19	13
6	12	10	15	4	14	15	20	2	14	13	19	4	5	4	20	2	8	3	18
13	10	18	3	8	7	17	8	1	1	11	2	1	1	11	20	3	5	4	19
9	20	16	5	11	13	6	11	1	3	18	1	13	12	9	2	10	11	6	16
